
Gurobi 7.5.2 (linux64) logging started Sat Jul  7 16:28:17 2018

Changed value of parameter LogFile to result/ilp/simNo_7-n_100-m_40-s_4-minVAF_0.05-cov_10000-k_1-fn_0.15-fp_0.0001-na_0.15.ILP.gurobiSolverLog
   Prev: gurobi.log  Default: 
Changed value of parameter TimeLimit to 86400.0
   Prev: 1e+100  Min: 0.0  Max: 1e+100  Default: 1e+100
Optimize a model with 639293 rows, 10765 columns and 1940420 nonzeros
Variable types: 0 continuous, 10765 integer (10765 binary)
Coefficient statistics:
  Matrix range     [2e-04, 4e+00]
  Objective range  [1e+00, 1e+01]
  Bounds range     [1e+00, 1e+00]
  RHS range        [3e-01, 2e+00]
Found heuristic solution: objective -16782.54041
Presolve removed 127566 rows and 990 columns (presolve time = 6s) ...
Presolve removed 129714 rows and 990 columns (presolve time = 11s) ...
Presolve removed 129714 rows and 990 columns (presolve time = 15s) ...
Presolve removed 130259 rows and 990 columns (presolve time = 22s) ...
Presolve removed 184759 rows and 1535 columns (presolve time = 25s) ...
Presolve removed 184759 rows and 1535 columns (presolve time = 30s) ...
Presolve removed 184759 rows and 1535 columns
Presolve time: 30.35s
Presolved: 454534 rows, 9230 columns, 1368469 nonzeros
Variable types: 0 continuous, 9230 integer (9230 binary)
Presolved: 9230 rows, 463764 columns, 1377699 nonzeros

Presolve removed 9230 rows and 463764 columns

Root simplex log...

Iteration    Objective       Primal Inf.    Dual Inf.      Time
       0    1.0109057e+01   0.000000e+00   8.448600e+04     36s
   19158   -2.9363035e+02   0.000000e+00   1.473905e+05     40s
   32070   -3.5204748e+02   0.000000e+00   7.674399e+05     45s
   47832   -4.1091995e+02   0.000000e+00   2.426075e+04     50s
   58707   -4.3785190e+02   0.000000e+00   3.177110e+04     55s
   63365   -4.4446405e+02   0.000000e+00   0.000000e+00     59s
   63365   -4.4446405e+02   0.000000e+00   0.000000e+00     60s

Root relaxation: objective -4.444640e+02, 63365 iterations, 27.26 seconds
Total elapsed time = 112.02s
Total elapsed time = 132.44s
Total elapsed time = 173.02s

    Nodes    |    Current Node    |     Objective Bounds      |     Work
 Expl Unexpl |  Obj  Depth IntInf | Incumbent    BestBd   Gap | It/Node Time

     0     0 -444.46405    0 1398 -16782.540 -444.46405  97.4%     -  180s
H    0     0                    -598.9055777 -444.46405  25.8%     -  185s
H    0     0                    -569.8115267 -444.46405  22.0%     -  186s
H    0     0                    -543.0746705 -444.46405  18.2%     -  187s
     0     0 -449.81142    0 1435 -543.07467 -449.81142  17.2%     -  347s
     0     0 -449.81142    0 1441 -543.07467 -449.81142  17.2%     -  372s
     0     0 -452.45309    0 1470 -543.07467 -452.45309  16.7%     -  808s
H    0     0                    -524.0991288 -452.45309  13.7%     -  814s
     0     0 -453.29143    0 1474 -524.09913 -453.29143  13.5%     -  933s
     0     0 -453.97408    0 1565 -524.09913 -453.97408  13.4%     - 1169s
     0     0 -454.02732    0 1562 -524.09913 -454.02732  13.4%     - 1222s
     0     0 -454.02732    0 1582 -524.09913 -454.02732  13.4%     - 1229s
     0     0 -457.59136    0 1454 -524.09913 -457.59136  12.7%     - 8365s
     0     0 -457.60644    0 1453 -524.09913 -457.60644  12.7%     - 8384s
     0     0 -457.62091    0 1453 -524.09913 -457.62091  12.7%     - 8403s
     0     0 -459.40832    0 1427 -524.09913 -459.40832  12.3%     - 32004s
H    0     0                    -512.7729002 -459.40832  10.4%     - 32015s
     0     0 -459.40832    0 1430 -512.77290 -459.40832  10.4%     - 32024s
     0     0 -460.27056    0 2446 -512.77290 -460.27056  10.2%     - 34703s
H    0     0                    -509.2079861 -460.27056  9.61%     - 34717s
     0     0 -460.51663    0 1498 -509.20799 -460.51663  9.56%     - 34786s
     0     0 -460.84540    0 1518 -509.20799 -460.84540  9.50%     - 35768s
     0     0 -460.87004    0 1519 -509.20799 -460.87004  9.49%     - 35846s
     0     0 -460.87004    0 1546 -509.20799 -460.87004  9.49%     - 35857s
     0     0 -462.70789    0 2357 -509.20799 -462.70789  9.13%     - 40606s
H    0     0                    -501.3196383 -462.70789  7.70%     - 40619s
     0     0 -462.70885    0 2353 -501.31964 -462.70885  7.70%     - 40623s
     0     0 -463.21755    0 2330 -501.31964 -463.21755  7.60%     - 40707s
H    0     0                    -499.5371813 -463.21755  7.27%     - 40719s
     0     0 -463.24633    0 2339 -499.53718 -463.24633  7.26%     - 40739s
     0     0 -464.94380    0 2385 -499.53718 -464.94380  6.93%     - 44176s
H    0     0                    -497.7547242 -464.94380  6.59%     - 44187s
     0     0 -464.94380    0 2382 -497.75472 -464.94380  6.59%     - 44190s
     0     0 -467.12260    0 2429 -497.75472 -467.12260  6.15%     - 61259s
     0     0 -467.18831    0 2388 -497.75472 -467.18831  6.14%     - 61274s
     0     0 -467.18831    0 2393 -497.75472 -467.18831  6.14%     - 61279s
     0     0 -468.81004    0 1682 -497.75472 -468.81004  5.82%     - 62190s
     0     0 -468.83629    0 2407 -497.75472 -468.83629  5.81%     - 62263s
     0     0 -468.83629    0 2414 -497.75472 -468.83629  5.81%     - 62269s
     0     0 -469.81998    0 1642 -497.75472 -469.81998  5.61%     - 65251s
     0     0 -469.99624    0 2383 -497.75472 -469.99624  5.58%     - 65316s
     0     0 -470.03435    0 2430 -497.75472 -470.03435  5.57%     - 65333s
     0     0 -470.03435    0 2431 -497.75472 -470.03435  5.57%     - 65338s
     0     0 -470.88449    0 1658 -497.75472 -470.88449  5.40%     - 65535s
     0     0 -471.06079    0 1654 -497.75472 -471.06079  5.36%     - 65586s
     0     0 -471.06079    0 1664 -497.75472 -471.06079  5.36%     - 65594s
     0     0 -471.82495    0 1688 -497.75472 -471.82495  5.21%     - 65761s
     0     0 -472.09386    0 2418 -497.75472 -472.09386  5.16%     - 66751s
     0     0 -472.09806    0 2418 -497.75472 -472.09806  5.15%     - 66766s
     0     0 -472.09966    0 2426 -497.75472 -472.09966  5.15%     - 66774s
     0     0 -473.99881    0 1610 -497.75472 -473.99881  4.77%     - 67345s
     0     0 -474.01577    0 1629 -497.75472 -474.01577  4.77%     - 67398s
     0     0 -474.01577    0 1633 -497.75472 -474.01577  4.77%     - 67405s
     0     0 -475.06950    0 2367 -497.75472 -475.06950  4.56%     - 71665s
H    0     0                    -494.3448249 -475.06950  3.90%     - 71679s
     0     0 -475.19301    0 2390 -494.34482 -475.19301  3.87%     - 71756s
     0     0 -475.37512    0 2399 -494.34482 -475.37512  3.84%     - 71985s
     0     0 -475.39616    0 2400 -494.34482 -475.39616  3.83%     - 71997s
     0     0 -475.40392    0 2395 -494.34482 -475.40392  3.83%     - 72013s
     0     0 -475.40688    0 2396 -494.34482 -475.40688  3.83%     - 72019s
     0     0 -476.57142    0 2399 -494.34482 -476.57142  3.60%     - 72562s
     0     0 -476.66125    0 2372 -494.34482 -476.66125  3.58%     - 72617s
     0     0 -476.66125    0 2376 -494.34482 -476.66125  3.58%     - 72622s
     0     0 -477.82406    0 2386 -494.34482 -477.82406  3.34%     - 74290s
     0     0 -477.91065    0 2389 -494.34482 -477.91065  3.32%     - 74424s
     0     0 -477.93421    0 2393 -494.34482 -477.93421  3.32%     - 74440s
     0     0 -477.94433    0 2390 -494.34482 -477.94433  3.32%     - 74448s
     0     0 -477.94501    0 2398 -494.34482 -477.94501  3.32%     - 74454s
     0     0 -478.53589    0 2351 -494.34482 -478.53589  3.20%     - 75063s
     0     0 -479.31286    0 1040 -494.34482 -479.31286  3.04%     - 77667s
     0     0 -479.44319    0 2291 -494.34482 -479.44319  3.01%     - 79230s
     0     0 -479.46068    0 2368 -494.34482 -479.46068  3.01%     - 79248s
     0     0 -479.46068    0 2373 -494.34482 -479.46068  3.01%     - 79252s
     0     0 -479.86336    0  968 -494.34482 -479.86336  2.93%     - 79990s
     0     0 -479.97112    0 2344 -494.34482 -479.97112  2.91%     - 80644s
     0     0 -479.97112    0 2374 -494.34482 -479.97112  2.91%     - 80655s
     0     0 -480.47964    0 2353 -494.34482 -480.47964  2.80%     - 81976s
     0     0 -480.55535    0 2372 -494.34482 -480.55535  2.79%     - 82312s
     0     0 -480.55535    0 2374 -494.34482 -480.55535  2.79%     - 82316s
     0     0 -481.01527    0 2341 -494.34482 -481.01527  2.70%     - 85656s
     0     0          -    0      -494.34482 -481.01527  2.70%     - 86400s

Cutting planes:
  Gomory: 1
  MIR: 1
  Zero half: 198

Explored 1 nodes (2462286 simplex iterations) in 86400.20 seconds
Thread count was 1 (of 80 available processors)

Solution count 10: -494.345 -497.755 -499.537 ... -598.906

Time limit reached
Best objective -4.943448249030e+02, best bound -4.810152733705e+02, gap 2.6964%
